c ---- [ banner ] ------------------------------------------------------------
c
c Kissat SAT Solver
c 
c Copyright (c) 2021-2024 Armin Biere University of Freiburg
c Copyright (c) 2019-2021 Armin Biere Johannes Kepler University Linz
c 
c Version 4.0.1 43f02cf3e992cb44653b35e5cb26f93281552ae0
c gcc (Ubuntu 13.2.0-23ubuntu4) 13.2.0 -W -Wall -O3 -DNDEBUG
c Thu Sep 12 12:27:46 CEST 2024 Linux abryzen9 6.8.0-41-generic x86_64
c
c ---- [ parsing ] -----------------------------------------------------------
c
c opened and reading DIMACS file:
c
c   /data/artifact/AMulet2.0_artifact/exp4/cnf_compress2rs_64/64_64_U_SP_DT_SE_GenMul_compress2rs.cnf
c
c parsed 'p cnf 34652 135332' header
c closing input after reading 2633487 bytes (3 MB)
c finished parsing after 0.03 seconds
c
c ---- [ options ] -----------------------------------------------------------
c
c --stable=0                       (different from default '1')
c
c ---- [ solving ] -----------------------------------------------------------
c
c  seconds switched rate     size/glue tier1  binary           remaining
c         MB reductions conflicts size  tier2     irredundant
c          level restarts redundant glue  trail           variables
c
c *  0.03 10 0 0 0  0 0   0   0 0.0 0 0 0 0 0% 27481 107849 34649 100%
c (  0.06 12 0 0 0  0 0   0   0 0.0 0 0 0 0 0% 27481 107849 34649 100%
c .  0.07 13 0 0 0  0 0   0   0 0.0 0 0 0 0 0% 27477 107849 34649 100%
c c  0.17 20 0 0 0  0 0   0   0 0.0 0 0 0 0 0% 34381 94041 31197 90%
c d  0.18 21 0 0 0  0 0   0   0 0.0 0 0 0 0 0% 27477 94041 31197 90%
c =  0.24 21 0 0 0  0 0   0   0 0.0 0 0 0 0 0% 27971 94041 30950 89%
c d  0.25 21 0 0 0  0 0   0   0 0.0 0 0 0 0 0% 27477 94041 30950 89%
c f  0.36 19 0 0 0  0 0   0   0 0.0 0 0 0 0 0% 30354 89443 32671 94%
c e  0.51 27 0 0 0  0 0   0   0 0.0 0 0 0 0 0% 8467 103407 21612 62%
c )  0.51 27 0 0 0  0 0   0   0 0.0 0 0 0 0 0% 8467 103407 21612 62%
c {  0.54 27 0 0 0  0 0   0   0 0.0 0 0 2 6 0% 8467 103407 21612 62%
c -  0.91 27 224 0 1 133 36 1000 727 5.2 45 9 4 14 32% 8487 103407 21612 62%
c -  1.15 27 342 0 2 185 30 2008 1415 4.1 40 10 3 13 29% 8512 103407 21612 62%
c c  1.34 21 336 0 2 235 30 2502 1878 4.1 38 9 3 13 27% 8518 103369 21603 62%
c d  1.34 21 336 0 2 235 30 2502 1875 4.1 38 9 3 13 27% 8500 103369 21603 62%
c u  1.36 21 336 0 2 235 30 2502 1455 4.1 38 9 3 13 27% 8509 103369 21603 62%
c v  1.38 21 336 0 2 235 30 2502 1238 4.1 38 9 3 13 27% 8509 103369 21603 62%
c w  1.40 21 336 0 2 235 30 2502 1238 4.1 38 9 3 13 27% 8509 103369 21603 62%
c =  1.50 21 336 0 2 235 30 2502 1238 4.1 38 9 3 13 27% 8809 103369 21453 62%
c d  1.51 21 336 0 2 235 30 2502 1226 4.1 38 9 3 13 27% 8505 103369 21451 62%
c
c  seconds   switched   rate       size/glue tier1     binary          remaining
c         MB  reductions conflicts       size  tier2      irredundant
c           level restarts    redundant    glue    trail          variables
c
c f  1.55 21 336 0 2 235 30 2502 1226 4.1 38 9 3 13 27% 9162 102101 22062 64%
c u  1.58 21 336 0 2 235 30 2502 1196 4.1 38 9 3 13 27% 9163 102101 22062 64%
c v  1.61 21 336 0 2 235 30 2502 1133 4.1 38 9 3 13 27% 9163 102101 22062 64%
c w  1.67 25 336 0 2 235 30 2502 1132 4.1 38 9 3 13 27% 9163 102101 22062 64%
c =  1.75 25 336 0 2 235 30 2502 1132 4.1 38 9 3 13 27% 9517 102101 21885 63%
c d  1.76 25 336 0 2 235 30 2502 1131 4.1 38 9 3 13 27% 9102 102101 21885 63%
c f  1.80 25 336 0 2 235 30 2502 1131 4.1 38 9 3 13 27% 9474 101543 22071 64%
c -  1.93 25 377 0 3 251 26 3424 1684 3.9 32 8 3 13 25% 9487 101543 22071 64%
c -  2.03 25 388 0 4 264 23 5157 2775 3.5 24 7 3 10 21% 9527 101543 22071 64%
c -  2.57 25 374 0 5 432 26 7158 4006 3.5 24 7 2 10 24% 9565 101543 22071 64%
c c  2.84 25 397 0 5 490 26 7704 4494 3.8 25 7 2 10 24% 9575 101475 22050 64%
c d  2.84 25 397 0 5 490 26 7704 4485 3.8 25 7 2 10 24% 9533 101475 22050 64%
c u  2.88 25 397 0 5 490 26 7704 3632 3.8 25 7 2 10 24% 9544 101475 22050 64%
c v  2.92 25 397 0 5 490 26 7704 3064 3.8 25 7 2 10 24% 9544 101475 22050 64%
c w  2.94 25 397 0 5 490 26 7704 3063 3.8 25 7 2 10 24% 9544 101475 22050 64%
c x  2.97 25 397 0 5 490 26 7704 3063 3.8 25 7 2 10 24% 9544 101133 22050 64%
c =  3.08 25 397 0 5 490 26 7704 3063 3.8 25 7 2 10 24% 10130 101133 21757 63%
c d  3.09 25 397 0 5 490 26 7704 3041 3.8 25 7 2 10 24% 9460 101133 21756 63%
c t  3.10 25 397 0 5 490 26 7704 3041 3.8 25 7 2 10 24% 9456 101133 21756 63%
c f  3.15 25 397 0 5 490 26 7704 3041 3.8 25 7 2 10 24% 10480 99597 22268 64%
c
c  seconds   switched   rate       size/glue tier1     binary          remaining
c         MB  reductions conflicts       size  tier2       irredundant
c           level restarts    redundant    glue    trail          variables
c
c u  3.21 25 397 0 5 490 26 7704 2865 3.8 25 7 2 10 24% 10482 99597 22268 64%
c v  3.25 25 397 0 5 490 26 7704 2784 3.8 25 7 2 10 24% 10483 99597 22268 64%
c w  3.31 25 397 0 5 490 26 7704 2784 3.8 25 7 2 10 24% 10483 99597 22268 64%
c x  3.34 25 397 0 5 490 26 7704 2784 3.8 25 7 2 10 24% 10483 99569 22268 64%
c =  3.45 25 397 0 5 490 26 7704 2784 3.8 25 7 2 10 24% 10997 99569 22011 64%
c d  3.46 25 397 0 5 490 26 7704 2783 3.8 25 7 2 10 24% 10410 99569 22009 64%
c t  3.48 25 397 0 5 490 26 7704 2783 3.8 25 7 2 10 24% 10395 99569 22009 64%
c f  3.53 25 397 0 5 490 26 7704 2783 3.8 25 7 2 10 24% 11502 97907 22563 65%
c -  4.09 25 405 0 6 653 27 9394 3841 3.7 25 7 2 9 25% 11526 97907 22563 65%
c o  4.26 25 398 0 6 711 27 10000 4303 3.8 25 7 2 9 25% 11561 97907 22563 65%
c -  4.82 25 387 0 7 940 29 11843 5312 3.9 25 6 2 8 25% 11592 97907 22563 65%
c s  4.93 25 376 0 7 956 28 12505 5808 4.0 25 6 2 8 24% 11626 95387 22563 65%
c e  5.05 25 376 0 7 956 28 12505 5808 4.0 25 6 2 8 24% 10160 96225 21716 63%
c s  5.06 25 376 0 7 956 28 12505 5808 4.0 25 6 2 8 24% 10160 95121 21716 63%
c e  5.08 25 376 0 7 956 28 12505 5808 4.0 25 6 2 8 24% 10104 95177 21691 63%
c ^  5.08 25 376 0 7 956 28 12505 5808 4.0 25 6 2 8 24% 10104 95177 21691 63%
c -  6.06 27 360 0 8 1223 29 14489 6378 4.1 27 7 2 7 25% 10134 95177 21691 63%
c d  6.18 27 363 0 8 1270 29 15782 7548 4.0 26 7 2 7 25% 9997 95177 21592 62%
c u  6.21 27 363 0 8 1270 29 15782 6015 4.0 26 7 2 7 25% 10007 95177 21592 62%
c v  6.25 27 363 0 8 1270 29 15782 5278 4.0 26 7 2 7 25% 10009 95177 21592 62%
c
c  seconds   switched    rate        size/glue tier1    binary          remaining
c         MB  reductions   conflicts       size  tier2      irredundant
c           level  restarts     redundant    glue   trail          variables
c
c w  6.30 27 363 0 8 1270 29 15782 5257 4.0 26 7 2 7 25% 10009 95177 21592 62%
c =  6.45 27 363 0 8 1270 29 15782 5257 4.0 26 7 2 7 25% 11765 95175 20714 60%
c d  6.46 27 363 0 8 1270 29 15782 5187 4.0 26 7 2 7 25% 9609 95175 20712 60%
c t  6.48 27 363 0 8 1270 29 15782 5187 4.0 26 7 2 7 25% 9596 95175 20712 60%
c f  6.54 27 363 0 8 1270 29 15782 5187 4.0 26 7 2 7 25% 9624 95119 20726 60%
c u  6.61 27 363 0 8 1270 29 15782 4878 4.0 26 7 2 7 25% 9625 95119 20726 60%
c v  6.63 27 363 0 8 1270 29 15782 4754 4.0 26 7 2 7 25% 9625 95119 20726 60%
c w  6.68 27 363 0 8 1270 29 15782 4739 4.0 26 7 2 7 25% 9625 95119 20726 60%
c x  6.73 27 363 0 8 1270 29 15782 4739 4.0 26 7 2 7 25% 9625 89359 20726 60%
c =  6.88 27 363 0 8 1270 29 15782 4739 4.0 26 7 2 7 25% 11505 89359 19786 57%
c d  6.89 27 363 0 8 1270 29 15782 4709 4.0 26 7 2 7 25% 9240 89359 19786 57%
c -  7.11 27 350 0 9 1316 28 17317 5299 3.9 25 6 2 7 25% 9290 89359 19786 57%
c o  7.45 27 348 0 9 1526 28 20014 7679 4.0 26 6 2 7 25% 9335 89359 19786 57%
c -  7.59 27 347 0 10 1606 29 20318 7150 4.1 27 7 2 7 25% 9337 89359 19786 57%
c -  7.95 27 338 0 11 1799 28 23480 8823 4.1 27 7 2 7 25% 9398 89359 19786 57%
c s  8.24 27 331 0 11 1965 29 25006 10167 4.1 27 7 2 7 25% 9431 88641 19786 57%
c e  8.34 27 331 0 11 1965 29 25006 10167 4.1 27 7 2 7 25% 8153 92176 16585 48%
c s  8.36 27 331 0 11 1965 29 25006 10167 4.1 27 7 2 7 25% 8153 87732 16585 48%
c e  8.39 27 331 0 11 1965 29 25006 10167 4.1 27 7 2 7 25% 8135 87768 16563 48%
c ^  8.39 27 331 0 11 1965 29 25006 10167 4.1 27 7 2 7 25% 8135 87768 16563 48%
c
c  seconds   switched     rate        size/glue tier1    binary         remaining
c         MB   reductions   conflicts       size  tier2     irredundant
c           level   restarts     redundant    glue   trail         variables
c
c -  8.71 27 318 0 12 2115 28 26797 8369 4.0 26 7 2 7 26% 8158 87768 16563 48%
c d  8.73 27 318 0 12 2118 28 26909 8456 4.0 26 7 2 7 26% 8089 87768 16516 48%
c u  8.76 27 318 0 12 2118 28 26909 6910 4.0 26 7 2 7 26% 8098 87768 16516 48%
c v  8.78 27 318 0 12 2118 28 26909 5979 4.0 26 7 2 7 26% 8100 87768 16516 48%
c w  8.79 27 318 0 12 2118 28 26909 5974 4.0 26 7 2 7 26% 8100 87768 16516 48%
c x  8.85 27 318 0 12 2118 28 26909 5974 4.0 26 7 2 7 26% 8101 85677 16516 48%
c =  9.03 27 318 0 12 2118 28 26909 5974 4.0 26 7 2 7 26% 9973 85677 15580 45%
c d  9.03 27 318 0 12 2118 28 26909 5849 4.0 26 7 2 7 26% 8029 85677 15576 45%
c t  9.04 27 318 0 12 2118 28 26909 5849 4.0 26 7 2 7 26% 8026 85677 15576 45%
c f  9.11 27 318 0 12 2118 28 26909 5849 4.0 26 7 2 7 26% 8014 85646 15588 45%
c u  9.13 27 318 0 12 2118 28 26909 5479 4.0 26 7 2 7 26% 8014 85646 15588 45%
c v  9.15 27 318 0 12 2118 28 26909 5366 4.0 26 7 2 7 26% 8014 85646 15588 45%
c w  9.15 27 318 0 12 2118 28 26909 5365 4.0 26 7 2 7 26% 8014 85646 15588 45%
c x  9.24 27 318 0 12 2118 28 26909 5365 4.0 26 7 2 7 26% 8014 79215 15588 45%
c =  9.41 27 318 0 12 2118 28 26909 5365 4.0 26 7 2 7 26% 9696 79189 14746 43%
c d  9.41 27 318 0 12 2118 28 26909 5196 4.0 26 7 2 7 26% 7955 79189 14746 43%
c -  9.87 27 293 0 13 2388 27 30262 7219 3.7 24 6 2 7 26% 7980 79187 14746 43%
c - 10.38 27 275 0 14 2758 27 33867 9310 3.6 24 7 2 7 26% 8002 79184 14746 43%
c - 10.80 27 271 0 15 3086 26 37608 10966 3.6 24 7 2 6 26% 8048 79183 14746 43%
c o 10.96 27 275 0 15 3199 26 40311 13087 3.6 23 6 2 6 25% 8109 79183 14746 43%
c
c  seconds   switched     rate         size/glue tier1    binary         remaining
c         MB   reductions   conflicts        size  tier2     irredundant
c           level   restarts      redundant    glue   trail         variables
c
c d 11.12 27 273 0 15 3345 26 41245 13826 3.6 23 7 2 6 25% 8011 79179 14692 42%
c u 11.15 27 273 0 15 3345 26 41245 11299 3.6 23 7 2 6 25% 8033 79179 14692 42%
c v 11.20 27 273 0 15 3345 26 41245 9770 3.6 23 7 2 6 25% 8037 79179 14692 42%
c w 11.23 27 273 0 15 3345 26 41245 9769 3.6 23 7 2 6 25% 8037 79179 14692 42%
c x 11.28 27 273 0 15 3345 26 41245 9769 3.6 23 7 2 6 25% 8037 75371 14692 42%
c = 11.46 27 273 0 15 3345 26 41245 9769 3.6 23 7 2 6 25% 8307 75371 14557 42%
c d 11.46 27 273 0 15 3345 26 41245 9563 3.6 23 7 2 6 25% 7984 75371 14551 42%
c t 11.47 27 273 0 15 3345 26 41245 9563 3.6 23 7 2 6 25% 7980 75371 14551 42%
c f 11.48 27 273 0 15 3345 26 41245 9563 3.6 23 7 2 6 25% 7984 75355 14553 42%
c c 11.52 27 273 0 15 3345 26 41245 9537 3.6 23 7 2 6 25% 8009 75219 14536 42%
c d 11.52 27 273 0 15 3345 26 41245 9537 3.6 23 7 2 6 25% 7975 75219 14536 42%
c u 11.55 27 273 0 15 3345 26 41245 9038 3.6 23 7 2 6 25% 7978 75219 14536 42%
c v 11.57 27 273 0 15 3345 26 41245 8808 3.6 23 7 2 6 25% 7978 75219 14536 42%
c w 11.64 27 273 0 15 3345 26 41245 8791 3.6 23 7 2 6 25% 7978 75219 14536 42%
c x 11.68 27 273 0 15 3345 26 41245 8791 3.6 23 7 2 6 25% 7978 73133 14536 42%
c = 11.86 27 273 0 15 3345 26 41245 8791 3.6 23 7 2 6 25% 8624 73133 14213 41%
c d 11.86 27 273 0 15 3345 26 41245 8440 3.6 23 7 2 6 25% 7936 73133 14213 41%
c - 11.89 27 274 0 16 3349 26 41480 7543 3.6 23 7 2 6 25% 7936 73133 14213 41%
c - 12.30 27 263 0 17 3643 25 45480 9767 3.4 22 6 2 6 26% 7953 73129 14213 41%
c - 12.71 27 255 0 18 3938 25 49603 12060 3.4 22 6 2 6 26% 7990 73129 14213 41%
c
c  seconds   switched     rate         size/glue tier1    binary         remaining
c         MB   reductions   conflicts        size  tier2     irredundant
c           level   restarts      redundant    glue   trail         variables
c
c s 12.91 27 253 0 18 4085 24 52109 14189 3.3 22 6 2 6 25% 8011 70108 14213 41%
c e 12.98 27 253 0 18 4085 24 52109 14189 3.3 22 6 2 6 25% 6951 72105 13190 38%
c s 12.99 27 253 0 18 4085 24 52109 14189 3.3 22 6 2 6 25% 6951 71499 13190 38%
c e 13.00 27 253 0 18 4085 24 52109 14189 3.3 22 6 2 6 25% 6951 71507 13185 38%
c ^ 13.00 27 253 0 18 4085 24 52109 14189 3.3 22 6 2 6 25% 6951 71507 13185 38%
c - 13.21 27 247 0 19 4254 24 53848 12775 3.3 21 6 2 6 25% 6965 71507 13185 38%
c - 13.65 27 232 0 20 4659 23 58206 14732 3.1 20 6 2 6 25% 6988 71507 13185 38%
c d 13.74 27 231 0 20 4732 23 58897 15327 3.1 20 6 2 6 25% 6967 71507 13172 38%
c u 13.78 27 231 0 20 4732 23 58897 12602 3.1 20 6 2 6 25% 6975 71507 13172 38%
c v 13.83 27 231 0 20 4732 23 58897 10968 3.1 20 6 2 6 25% 6976 71507 13172 38%
c w 13.85 27 231 0 20 4732 23 58897 10930 3.1 20 6 2 6 25% 6976 71507 13172 38%
c x 13.89 27 231 0 20 4732 23 58897 10930 3.1 20 6 2 6 25% 6976 71417 13172 38%
c d 14.09 27 231 0 20 4732 23 58897 10929 3.1 20 6 2 6 25% 6972 71417 13170 38%
c t 14.10 27 231 0 20 4732 23 58897 10929 3.1 20 6 2 6 25% 6967 71417 13170 38%
c f 14.13 27 231 0 20 4732 23 58897 10929 3.1 20 6 2 6 25% 6979 71369 13177 38%
c c 14.16 27 231 0 20 4732 23 58897 10896 3.1 20 6 2 6 25% 7005 71249 13162 38%
c d 14.17 27 231 0 20 4732 23 58897 10896 3.1 20 6 2 6 25% 6975 71249 13162 38%
c u 14.20 27 231 0 20 4732 23 58897 10472 3.1 20 6 2 6 25% 6979 71249 13162 38%
c v 14.23 27 231 0 20 4732 23 58897 10216 3.1 20 6 2 6 25% 6979 71249 13162 38%
c w 14.25 27 231 0 20 4732 23 58897 10186 3.1 20 6 2 6 25% 6979 71249 13162 38%
c
c  seconds   switched     rate         size/glue tier1    binary         remaining
c         MB   reductions   conflicts        size  tier2     irredundant
c           level   restarts      redundant    glue   trail         variables
c
c d 14.25 27 231 0 20 4732 23 58897 10183 3.1 20 6 2 6 25% 6975 71249 13160 38%
c t 14.26 27 231 0 20 4732 23 58897 10183 3.1 20 6 2 6 25% 6973 71249 13160 38%
c - 14.69 27 222 0 21 5090 23 62678 12064 3.1 20 7 2 6 25% 6992 71249 13160 38%
c - 15.37 27 215 0 22 5641 23 67261 14446 3.0 20 7 2 6 26% 7023 71246 13160 38%
c o 15.70 27 210 0 22 5930 23 70352 17080 3.0 20 7 2 6 25% 7054 71244 13160 38%
c - 15.89 27 206 0 23 6110 23 71951 16228 3.0 20 7 2 6 25% 7062 71244 13160 38%
c - 16.72 27 201 0 24 6884 23 76747 18028 3.1 21 7 2 5 26% 7104 71244 13160 38%
c c 17.38 27 198 0 24 7335 24 79992 20890 3.1 21 7 2 5 26% 7213 70719 13050 38%
c d 17.38 27 198 0 24 7335 24 79992 20482 3.1 21 7 2 5 26% 6993 70719 13050 38%
c u 17.43 27 198 0 24 7335 24 79992 17383 3.1 21 7 2 5 26% 7016 70719 13050 38%
c v 17.48 27 198 0 24 7335 24 79992 15627 3.1 21 7 2 5 26% 7022 70719 13050 38%
c w 17.58 27 198 0 24 7335 24 79992 15622 3.1 21 7 2 5 26% 7022 70719 13050 38%
c x 17.67 27 198 0 24 7335 24 79992 15618 3.1 21 7 2 5 26% 7022 68919 13050 38%
c = 17.85 27 198 0 24 7335 24 79992 15618 3.1 21 7 2 5 26% 7114 68919 13004 38%
c d 17.86 27 198 0 24 7335 24 79992 15537 3.1 21 7 2 5 26% 6999 68919 12997 38%
c t 17.87 27 198 0 24 7335 24 79992 15537 3.1 21 7 2 5 26% 6997 68919 12997 38%
c c 17.91 27 198 0 24 7335 24 79992 15534 3.1 21 7 2 5 26% 6999 68911 12996 38%
c d 17.91 27 198 0 24 7335 24 79992 15532 3.1 21 7 2 5 26% 6997 68911 12996 38%
c u 17.96 27 198 0 24 7335 24 79992 14748 3.1 21 7 2 5 26% 7012 68911 12996 38%
c v 17.99 27 198 0 24 7335 24 79992 14484 3.1 21 7 2 5 26% 7012 68911 12996 38%
c
c  seconds   switched     rate         size/glue tier1    binary         remaining
c         MB   reductions   conflicts        size  tier2     irredundant
c           level   restarts      redundant    glue   trail         variables
c
c w 18.13 27 198 0 24 7335 24 79992 14314 3.1 21 7 2 5 26% 7012 68911 12996 38%
c x 18.19 27 198 0 24 7335 24 79992 14314 3.1 21 7 2 5 26% 7012 68723 12996 38%
c = 18.55 27 198 0 24 7335 24 79992 14314 3.1 21 7 2 5 26% 7820 68723 12592 36%
c d 18.56 27 198 0 24 7335 24 79992 13902 3.1 21 7 2 5 26% 6933 68723 12592 36%
c - 18.79 27 196 0 25 7447 23 81648 12339 3.1 21 7 1 5 26% 6938 68723 12592 36%
c - 19.48 27 189 0 26 7998 23 86648 14188 3.0 21 7 1 5 27% 6954 68723 12592 36%
c - 20.32 27 185 0 27 8656 23 91747 16030 3.0 21 7 1 5 27% 6981 68723 12592 36%
c s 20.89 27 183 0 27 9132 23 95846 19583 3.0 22 7 1 5 27% 7007 66917 12592 36%
c e 20.97 27 183 0 27 9132 23 95846 19583 3.0 22 7 1 5 27% 4871 72456 11421 33%
c s 20.98 27 183 0 27 9132 23 95846 19583 3.0 22 7 1 5 27% 4871 72267 11421 33%
c e 20.99 27 183 0 27 9132 23 95846 19583 3.0 22 7 1 5 27% 4871 72313 11398 33%
c ^ 20.99 27 183 0 27 9132 23 95846 19583 3.0 22 7 1 5 27% 4871 72313 11398 33%
c - 21.13 27 182 0 28 9245 23 96943 14585 3.0 22 7 1 5 27% 4879 72313 11398 33%
c - 21.95 27 179 0 29 9986 23 102234 16559 3.0 22 7 1 5 27% 4901 72312 11398 33%
c d 22.18 27 177 0 29 10126 23 104657 18662 3.0 22 7 1 5 27% 4881 72311 11382 33%
c u 22.22 27 177 0 29 10126 23 104657 16369 3.0 22 7 1 5 27% 4886 72311 11382 33%
c v 22.27 27 177 0 29 10126 23 104657 13584 3.0 22 7 1 5 27% 4887 72311 11382 33%
c w 22.35 27 177 0 29 10126 23 104657 13232 3.0 22 7 1 5 27% 4887 72311 11382 33%
c = 22.76 27 177 0 29 10126 23 104657 13232 3.0 22 7 1 5 27% 5171 72303 11240 32%
c d 22.76 27 177 0 29 10126 23 104657 13131 3.0 22 7 1 5 27% 4856 72303 11240 32%
c
c  seconds   switched      rate          size/glue tier1    binary         remaining
c         MB   reductions    conflicts         size  tier2     irredundant
c           level   restarts        redundant    glue   trail         variables
c
c t 22.77 27 177 0 29 10126 23 104657 13131 3.0 22 7 1 5 27% 4850 72303 11240 32%
c u 22.87 27 177 0 29 10126 23 104657 12649 3.0 22 7 1 5 27% 4851 72303 11240 32%
c v 22.91 27 177 0 29 10126 23 104657 12072 3.0 22 7 1 5 27% 4851 72303 11240 32%
c w 22.97 27 177 0 29 10126 23 104657 11928 3.0 22 7 1 5 27% 4851 72303 11240 32%
c x 23.12 27 177 0 29 10126 23 104657 11913 3.0 22 7 1 5 27% 4851 69858 11240 32%
c - 23.97 27 175 0 30 10383 23 107619 12473 3.0 22 7 1 5 27% 4862 69858 11240 32%
c o 24.29 27 176 0 30 10613 23 110358 14946 2.9 22 7 1 5 27% 4866 69857 11240 32%
c - 24.68 27 175 0 31 10925 23 113096 14840 2.9 22 7 1 5 27% 4878 69857 11240 32%
c - 25.48 27 173 0 32 11395 23 118666 16920 2.9 22 7 1 5 28% 4898 69856 11240 32%
c - 26.43 27 170 0 33 12137 23 124322 18525 2.9 22 8 1 5 28% 4912 69856 11240 32%
c - 27.33 27 168 0 34 12777 23 130066 19796 2.9 23 8 1 5 28% 4951 69856 11240 32%
c d 27.68 27 167 0 34 13019 23 132964 21977 2.9 23 8 1 5 28% 4884 69856 11194 32%
c u 27.73 27 167 0 34 13019 23 132964 19645 2.9 23 8 1 5 28% 4898 69856 11194 32%
c v 27.80 27 167 0 34 13019 23 132964 16142 2.9 23 8 1 5 28% 4908 69856 11194 32%
c w 27.98 27 167 0 34 13019 23 132964 16003 2.9 23 8 1 5 28% 4908 69856 11194 32%
c x 28.09 27 167 0 34 13019 23 132964 15995 2.9 23 8 1 5 28% 4908 69832 11194 32%
c d 28.10 27 167 0 34 13019 23 132964 15974 2.9 23 8 1 5 28% 4894 69832 11187 32%
c t 28.11 27 167 0 34 13019 23 132964 15974 2.9 23 8 1 5 28% 4888 69832 11187 32%
c u 28.16 27 167 0 34 13019 23 132964 15357 2.9 23 8 1 5 28% 4892 69832 11187 32%
c v 28.20 27 167 0 34 13019 23 132964 14699 2.9 23 8 1 5 28% 4892 69832 11187 32%
c
c  seconds   switched      rate          size/glue tier1    binary         remaining
c         MB   reductions    conflicts         size  tier2     irredundant
c           level   restarts        redundant    glue   trail         variables
c
c w 28.35 27 167 0 34 13019 23 132964 14283 2.9 23 8 1 5 28% 4892 69832 11187 32%
c = 28.82 27 167 0 34 13019 23 132964 14283 2.9 23 8 1 5 28% 4934 69832 11166 32%
c d 28.83 27 167 0 34 13019 23 132964 14222 2.9 23 8 1 5 28% 4881 69832 11165 32%
c - 29.07 27 164 0 35 13155 22 135896 14250 2.9 23 8 1 5 28% 4902 69832 11165 32%
c - 29.92 27 160 0 36 13633 22 141812 16715 2.8 22 8 1 5 28% 4934 69832 11165 32%
c i 30.35 27 159 0 36 13824 21 144986 19377 2.8 22 8 1 5 28% 4969 69832 11164 32%
c - 30.83 27 157 0 37 14024 21 147812 18636 2.8 22 8 1 5 28% 4974 69832 11164 32%
c i 31.84 27 153 0 37 14502 21 153501 23676 2.8 22 8 1 5 27% 5022 69831 11163 32%
c - 31.85 27 153 0 38 14502 21 153895 19946 2.8 22 8 1 5 27% 5030 69831 11163 32%
c i 32.43 27 152 0 38 14764 20 156463 22246 2.8 22 8 1 5 27% 5054 69831 11162 32%
c i 32.65 27 151 0 38 14862 21 156969 22721 2.8 22 8 1 5 27% 5056 69831 11161 32%
c s 32.83 27 151 0 38 14942 20 158013 23605 2.8 22 8 1 5 27% 5067 69636 11161 32%
c e 32.95 27 151 0 38 14942 20 158013 23605 2.8 22 8 1 5 27% 2529 80994 9534 28%
c 2 32.95 27 151 0 38 14942 20 158013 23605 2.8 22 8 1 5 27% 2525 80994 9534 28%
c s 32.97 27 151 0 38 14942 20 158013 23605 2.8 22 8 1 5 27% 2525 80369 9534 28%
c e 32.99 27 151 0 38 14942 20 158013 23605 2.8 22 8 1 5 27% 2523 80477 9509 27%
c ^ 32.99 27 151 0 38 14942 20 158013 23605 2.8 22 8 1 5 27% 2523 80477 9509 27%
c - 33.23 27 149 0 39 15081 20 160059 14615 2.7 22 8 1 5 27% 2529 80477 9509 27%
c o 33.27 27 149 0 39 15113 20 160531 14988 2.7 22 8 1 5 27% 2535 80474 9509 27%
c c 33.66 27 145 0 39 15449 20 165007 18860 2.7 21 8 1 5 27% 2609 80090 9460 27%
c
c  seconds   switched      rate          size/glue tier1    binary        remaining
c         MB   reductions    conflicts         size  tier2     irredundant
c           level   restarts        redundant    glue   trail        variables
c
c d 33.67 27 145 0 39 15449 20 165007 18579 2.7 21 8 1 5 27% 2511 80090 9460 27%
c u 33.70 27 145 0 39 15449 20 165007 16529 2.7 21 8 1 5 27% 2528 80090 9460 27%
c v 33.77 27 145 0 39 15449 20 165007 13444 2.7 21 8 1 5 27% 2537 80090 9459 27%
c w 33.86 27 145 0 39 15449 20 165007 13380 2.7 21 8 1 5 27% 2537 80090 9459 27%
c x 33.92 27 145 0 39 15449 20 165007 13380 2.7 21 8 1 5 27% 2537 79968 9459 27%
c = 34.15 27 145 0 39 15449 20 165007 13380 2.7 21 8 1 5 27% 2919 79406 9217 27%
c } 34.15 27 145 0 39 15449 20 165007 13380 2.7 21 8 1 5 27% 2919 79406 9406 27%
c 0 34.15 27 145 0 39 15449 20 165007 13380 2.7 21 8 1 5 27% 2919 79406 9406 27%
c
c ---- [ result ] ------------------------------------------------------------
c
s UNSATISFIABLE
c
c ---- [ profiling ] ---------------------------------------------------------
c
c          24.46   71.62 %  search
c          24.46   71.62 %  focused
c           9.16   26.81 %  simplify
c           8.74   25.58 %  probe
c           3.70   10.84 %  sweep
c           3.32    9.72 %  vivify
c           0.72    2.11 %  eliminate
c           0.63    1.85 %  factor
c           0.48    1.41 %  congruence
c           0.46    1.34 %  preprocess
c           0.44    1.30 %  substitute
c           0.18    0.52 %  reduce
c           0.15    0.43 %  fastel
c           0.12    0.37 %  subsume
c           0.10    0.31 %  transitive
c           0.06    0.16 %  backbone
c           0.05    0.13 %  lucky
c           0.03    0.10 %  parse
c =============================================
c          34.15  100.00 %  total
c
c ---- [ statistics ] --------------------------------------------------------
c
c chronological:                         4702                3 %  conflicts
c conflicts:                           165007             4831.93 per second
c congruent:                             3674               11 %  variables
c decisions:                          3332573               20.20 per conflict
c eliminated:                           19028               55 %  variables
c factored:                              3619               10 %  variables
c fast_eliminated:                      11059               58 %  eliminated
c fast_subsumed:                           55                0 %  per subsumed
c iterations:                               4                0 %  variables
c propagations:                     146052511          4276884    per second
c reductions:                              39             4231    interval
c reordered:                                6            27501    interval
c restarts:                             15449               11    interval
c strengthened:                          4603                0 %  checks
c substituted:                           9775               28 %  variables
c subsumed:                             15266                0 %  checks
c switched:                                 0                0    interval
c vivified:                             80233               13 %  checks
c
c ---- [ glue usage ] --------------------------------------------------------
c
c focused glue 1 used 266741 clauses 59.97% accumulated 59.97% tier1
c focused glue 2 used  89679 clauses 20.16% accumulated 80.14%
c focused glue 3 used  26010 clauses  5.85% accumulated 85.99%
c focused glue 4 used  15761 clauses  3.54% accumulated 89.53%
c focused glue 5 used  10082 clauses  2.27% accumulated 91.80% tier2
c
c ---- [ resources ] ---------------------------------------------------------
c
c maximum-resident-set-size:         28762112 bytes         27 MB
c process-time:                            34s              34.15 seconds
c
c ---- [ shutting down ] -----------------------------------------------------
c
c exit 20
